3
30
7120
[[245,407,317,217,538,585,549,653,843,967,174,691,130,273,326, 75, 72,752,264,195,299,744,257,170,827,152,903,354,357,846],
 [225,256,582,528,403,547,259,654,489,459,412,103,503, 52,818,842, 97,722,439,209,952,792,511, 45,752,407,665,728,352,621],
 [394,121,677,  2,963,105,532,559,634,493,300,390, 22,238,953,285,402,491,468,643,627,439,509,583,222,977,733,575,164, 97]]
[887,863, 19,259,507,625,436,140,884,252,344,516,161,199,813,159,680,104,332,304,626, 91,908,440,889,874,486,492,854, 97]